<?xml version = "1.0" standalone="yes"?>
<!-- This file has been generated by DOcplex version 2.23.222  -->
<CPLEXSolution version="1.0">
 <header
   problemName="CVRP"
   objectiveValue="10768.7"
  />
 <variables>
  <variable name="x_0_1" index="0" value="1.00000"/>
  <variable name="x_0_2" index="1" value="1.00000"/>
  <variable name="x_0_3" index="2" value="1.00000"/>
  <variable name="x_0_5" index="4" value="1.00000"/>
  <variable name="x_0_6" index="5" value="1.00000"/>
  <variable name="x_0_8" index="7" value="1.00000"/>
  <variable name="x_0_10" index="9" value="1.00000"/>
  <variable name="x_0_12" index="11" value="1.00000"/>
  <variable name="x_0_13" index="12" value="1.00000"/>
  <variable name="x_0_15" index="14" value="1.00000"/>
  <variable name="x_0_17" index="16" value="1.00000"/>
  <variable name="x_0_18" index="17" value="1.00000"/>
  <variable name="x_1_0" index="21" value="1.00000"/>
  <variable name="x_2_11" index="52" value="1.00000"/>
  <variable name="x_3_16" index="78" value="1.00000"/>
  <variable name="x_4_0" index="84" value="1.00000"/>
  <variable name="x_5_21" index="125" value="1.00000"/>
  <variable name="x_6_0" index="126" value="1.00000"/>
  <variable name="x_7_0" index="147" value="1.00000"/>
  <variable name="x_8_4" index="172" value="1.00000"/>
  <variable name="x_9_0" index="189" value="1.00000"/>
  <variable name="x_10_7" index="217" value="1.00000"/>
  <variable name="x_11_19" index="249" value="1.00000"/>
  <variable name="x_12_14" index="265" value="1.00000"/>
  <variable name="x_13_0" index="273" value="1.00000"/>
  <variable name="x_14_0" index="294" value="1.00000"/>
  <variable name="x_15_0" index="315" value="1.00000"/>
  <variable name="x_16_20" index="355" value="1.00000"/>
  <variable name="x_17_9" index="366" value="1.00000"/>
  <variable name="x_18_0" index="378" value="1.00000"/>
  <variable name="x_19_0" index="399" value="1.00000"/>
  <variable name="x_20_0" index="420" value="1.00000"/>
  <variable name="x_21_0" index="441" value="1.00000"/>
  <variable name="u_1" index="462" value="68.00000"/>
  <variable name="u_2" index="463" value="24.00000"/>
  <variable name="u_3" index="464" value="10.00000"/>
  <variable name="u_4" index="465" value="68.00000"/>
  <variable name="u_5" index="466" value="42.00000"/>
  <variable name="u_6" index="467" value="50.00000"/>
  <variable name="u_7" index="468" value="60.00000"/>
  <variable name="u_8" index="469" value="31.00000"/>
  <variable name="u_9" index="470" value="68.00000"/>
  <variable name="u_10" index="471" value="36.00000"/>
  <variable name="u_11" index="472" value="33.00000"/>
  <variable name="u_12" index="473" value="23.00000"/>
  <variable name="u_13" index="474" value="48.00000"/>
  <variable name="u_14" index="475" value="55.00000"/>
  <variable name="u_15" index="476" value="68.00000"/>
  <variable name="u_16" index="477" value="49.00000"/>
  <variable name="u_17" index="478" value="20.00000"/>
  <variable name="u_18" index="479" value="50.00000"/>
  <variable name="u_19" index="480" value="56.00000"/>
  <variable name="u_20" index="481" value="52.00000"/>
  <variable name="u_21" index="482" value="64.00000"/>
 </variables>
</CPLEXSolution>
